824208
0,8,32,56,46,94,72,24,77,50,78,28,39,93,25,16,11,18,58,89,70,33,45,27,10,22,97,53,64,51,23,42,21,83,91,38,13,6,65,3,80,85,44,86,75,37,35,49,87,82,14,15,81,57,60,66,34,96,41,1,26,63,4,2,84,88,7,52,90,43,54,71,67,98,79,12,62,92,48,55,17,68,74,5,40,76,19,20,95,29,9,61,30,59,31,69,73,36,47,0